LibMLKEM/why3-cvc5/mlkem.adb_94_25_assert_1.smt2
;; produced by cvc5.drv ;;
(set-logic ALL)
(set-info :smt-lib-version 2.6)
;;; generated by SMT-LIB2 driver
;;; SMT-LIB2 driver: bit-vectors, common part
;;; SMT-LIB2: integer arithmetic
(define-fun __cdiv ((x Int) (y Int)) Int (ite (>= x 0) (div x y) (- (div (- x) y))))
(define-fun __cmod ((x Int) (y Int)) Int (ite (>= x 0) (mod x y) (- (mod (- x) y))))
;; "pow2"
(declare-fun pow2 (Int) Int)

(declare-const two_power_size_minus_one Int)

;; "two_power_size_minus_one_val"
(assert (= two_power_size_minus_one (pow2 (- 16 1))))

;; "min"
(define-fun min ((x Int) (y Int)) Int
  (ite (<= x y) x y))

;; "max"
(define-fun max ((x Int) (y Int)) Int
  (ite (<= x y) y x))

;; "Min_r"
(assert (forall ((x Int) (y Int)) (=> (<= y x) (= (min x y) y))))

;; "Max_l"
(assert (forall ((x Int) (y Int)) (=> (<= y x) (= (max x y) x))))

;; "Min_comm"
(assert (forall ((x Int) (y Int)) (= (min x y) (min y x))))

;; "Max_comm"
(assert (forall ((x Int) (y Int)) (= (max x y) (max y x))))

;; "Min_assoc"
(assert
  (forall ((x Int) (y Int) (z Int)) (= (min (min x y) z) (min x (min y z)))))

;; "Max_assoc"
(assert
  (forall ((x Int) (y Int) (z Int)) (= (max (max x y) z) (max x (max y z)))))

(declare-const left (_ BitVec 16))

(declare-const right (_ BitVec 16))

;; "in_range"
(define-fun in_range ((x Int)) Bool
  (and (<= (- 2147483648) x) (<= x 2147483647)))

;; "in_range"
(define-fun in_range1 ((x Int)) Bool
  (and (<= (- 2147483648) x) (<= x 2147483647)))

;; "in_range"
(define-fun in_range2 ((x (_ BitVec 16))) Bool
  (and (bvule #x0000 x) (bvule x #x0D00)))

;; Goal "def'vc"
;; File "mlkem.ads", line 174, characters 0-0
(assert
  (not
  (forall ((r Int) (reduce Int))
    (=>
      (in_range2 left)
      (=>
        (in_range2 right)
        (=>
          (in_range1 r)
          (=>
            (in_range1 reduce)
            (forall ((r1 Int))
              (=>
                (= r1 (+ (bv2nat left) (bv2nat right)))
                (=>
                  (and (<= 0 r1) (<= r1 6656))
                  (forall ((reduce1 Int))
                    (=>
                      (= reduce1 (ite (ite (<= 3329 r1) true false) 1 0))
                      (let ((o (* reduce1 3329)))
                        (=>
                          (in_range o)
                          (let ((o1 (- r1 o)))
                            (=>
                              (in_range o1)
                              (forall ((r2 Int))
                                (=> (= r2 o1) (and (<= 0 r2) (< r2 3329))))))))))))))))))))

(check-sat)
